Version identifier: 22.1.0.0 | 2022-03-09 | 1a383f8ce
CPXPARAM_Read_DataCheck                          1
CPXPARAM_TimeLimit                               600
Tried aggregator 3 times.
MIP Presolve eliminated 108670 rows and 9011 columns.
MIP Presolve modified 1201 coefficients.
Aggregator did 101327 substitutions.
Reduced MIP has 10143 rows, 103862 columns, and 218058 nonzeros.
Reduced MIP has 103822 binaries, 40 generals, 0 SOSs, and 0 indicators.
Presolve time = 1.36 sec. (1332.46 ticks)
Tried aggregator 1 time.
Detecting symmetries...
Reduced MIP has 10143 rows, 103862 columns, and 218058 nonzeros.
Reduced MIP has 103822 binaries, 40 generals, 0 SOSs, and 0 indicators.
Presolve time = 0.26 sec. (167.77 ticks)
Probing fixed 60 vars, tightened 0 bounds.
Probing changed sense of 16 constraints.
Probing time = 0.26 sec. (28.45 ticks)
Clique table members: 210282.
MIP emphasis: balance optimality and feasibility.
MIP search method: dynamic search.
Parallel mode: deterministic, using up to 8 threads.
Root relaxation solution time = 1.89 sec. (838.19 ticks)

        Nodes                                         Cuts/
   Node  Left     Objective  IInf  Best Integer    Best Bound    ItCnt     Gap

      0     0       40.3645  7178                     40.3645       30         
      0     0       62.0000  1040                    Cuts: 42    16558         
      0     0       62.0000   923                    Cuts: 94    27809         
      0     0       62.0000  1180                    Cuts: 70    38351         
      0     0       62.0000   956                 ZeroHalf: 4    40387         
      0     0       62.0000   792                ZeroHalf: 55    55057         
      0     0       62.0000  1124                ZeroHalf: 70    65914         
Heuristic still looking.
Heuristic still looking.
*     0+    0                           69.0000       62.0000            10.14%
*     0+    0                           68.0000       62.0000             8.82%
*     0+    0                           67.0000       62.0000             7.46%
      0     0  -1.00000e+75     0       67.0000       62.0000    65914    7.46%
      0     2       62.0000  1124       67.0000       62.0000    65914    7.46%
Elapsed time = 415.92 sec. (250472.12 ticks, tree = 0.02 MB, solutions = 3)
      1     3       62.0000   944       67.0000       62.0000    77500    7.46%
      2     3       62.0000   912       67.0000       62.0000    71906    7.46%
      3     4       62.0000  1029       67.0000       62.0000    78715    7.46%
      4     4       62.0000  1052       67.0000       62.0000    91758    7.46%
      5     5       62.0000   692       67.0000       62.0000    94245    7.46%
      6     5       62.0000   695       67.0000       62.0000    95623    7.46%
      7     8       62.0000   822       67.0000       62.0000   117163    7.46%
      8     7       62.0000   893       67.0000       62.0000   111662    7.46%

Cover cuts applied:  1
Zero-half cuts applied:  162
Lift and project cuts applied:  3
Gomory fractional cuts applied:  22

Root node processing (before b&c):
  Real time             =  415.54 sec. (250349.83 ticks)
Parallel b&c, 8 threads:
  Real time             =  184.59 sec. (57715.22 ticks)
  Sync time (average)   =   71.49 sec.
  Wait time (average)   =    0.00 sec.
                          ------------
Total (root+branch&cut) =  600.13 sec. (308065.05 ticks)
